
Value of objective function: 1.68831169

Actual values of the variables:
score                     1.68831
x_0_t_1                       0.5
x_1_t_1                       0.5
x_0_t_0                         0
x_0_t_2                       0.5
x_0_t_3                       0.5
x_0_t_4                  0.558442
x_0_t_5                  0.558442
x_0_t_6                  0.558442
x_0_t_7                  0.558442
x_0_t_8                  0.558442
x_0_t_9                  0.558442
x_0_t_10                 0.558442
x_0_t_11                 0.558442
x_0_t_12                 0.558442
x_0_t_13                 0.558442
x_0_t_14                 0.558442
x_0_t_15                 0.558442
x_0_t_16                 0.558442
x_0_t_17                 0.558442
x_0_t_18                 0.558442
x_0_t_19                 0.558442
x_1_t_0                         0
x_1_t_2                  0.811688
x_1_t_3                  0.811688
x_1_t_4                  0.811688
x_1_t_5                  0.811688
x_1_t_6                  0.811688
x_1_t_7                  0.811688
x_1_t_8                  0.811688
x_1_t_9                  0.811688
x_1_t_10                 0.811688
x_1_t_11                 0.811688
x_1_t_12                 0.811688
x_1_t_13                 0.811688
x_1_t_14                 0.811688
x_1_t_15                 0.811688
x_1_t_16                 0.811688
x_1_t_17                 0.811688
x_1_t_18                 0.811688
x_1_t_19                 0.811688
x_10_t_0                        0
x_10_t_1                        0
x_10_t_2                        0
x_10_t_3                        0
x_10_t_4                        0
x_10_t_5                        0
x_10_t_6                        0
x_10_t_7                        0
x_10_t_8                        0
x_10_t_9                        0
x_10_t_10                0.315584
x_10_t_11                       1
x_10_t_12                       1
x_10_t_13                       1
x_10_t_14                       1
x_10_t_15                       1
x_10_t_16                       1
x_10_t_17                       1
x_10_t_18                       1
x_10_t_19                       1
x_11_t_0                        0
x_11_t_1                        0
x_11_t_2                        0
x_11_t_3                        0
x_11_t_4                        0
x_11_t_5                        0
x_11_t_6                        0
x_11_t_7                        0
x_11_t_8                        0
x_11_t_9                        0
x_11_t_10                       0
x_11_t_11                       0
x_11_t_12                       0
x_11_t_13                       0
x_11_t_14                0.519481
x_11_t_15                0.519481
x_11_t_16                0.519481
x_11_t_17                0.519481
x_11_t_18                0.519481
x_11_t_19                       1
x_12_t_0                        0
x_12_t_1                        0
x_12_t_2                        0
x_12_t_3                        0
x_12_t_4                        0
x_12_t_5                        0
x_12_t_6                        0
x_12_t_7                        0
x_12_t_8                        0
x_12_t_9                        0
x_12_t_10                       0
x_12_t_11                       0
x_12_t_12                0.525974
x_12_t_13                       1
x_12_t_14                       1
x_12_t_15                       1
x_12_t_16                       1
x_12_t_17                       1
x_12_t_18                       1
x_12_t_19                       1
x_13_t_0                        0
x_13_t_1                        0
x_13_t_2                        0
x_13_t_3                        0
x_13_t_4                        0
x_13_t_5                        0
x_13_t_6                        0
x_13_t_7                        0
x_13_t_8                        0
x_13_t_9                        0
x_13_t_10                       0
x_13_t_11                       0
x_13_t_12                       0
x_13_t_13                       0
x_13_t_14                       0
x_13_t_15                       0
x_13_t_16                0.928571
x_13_t_17                0.928571
x_13_t_18                0.928571
x_13_t_19                       1
x_14_t_0                        0
x_14_t_1                        0
x_14_t_2                        0
x_14_t_3                        0
x_14_t_4                        0
x_14_t_5                        0
x_14_t_6                        0
x_14_t_7                        0
x_14_t_8                        0
x_14_t_9                        0
x_14_t_10                       0
x_14_t_11                       0
x_14_t_12                       0
x_14_t_13                       0
x_14_t_14                0.480519
x_14_t_15                0.688312
x_14_t_16                0.688312
x_14_t_17                0.688312
x_14_t_18                0.688312
x_14_t_19                       1
x_15_t_0                        0
x_15_t_1                        0
x_15_t_2                        0
x_15_t_3                        0
x_15_t_4                        0
x_15_t_5                        0
x_15_t_6                        0
x_15_t_7                        0
x_15_t_8                        0
x_15_t_9                        0
x_15_t_10                       0
x_15_t_11                       0
x_15_t_12                       0
x_15_t_13                       0
x_15_t_14                       0
x_15_t_15                0.311688
x_15_t_16                0.311688
x_15_t_17                0.311688
x_15_t_18                       1
x_15_t_19                       1
x_16_t_0                        0
x_16_t_1                        0
x_16_t_2                        0
x_16_t_3                        0
x_16_t_4                        0
x_16_t_5                        0
x_16_t_6                        0
x_16_t_7                        0
x_16_t_8                        0
x_16_t_9                        0
x_16_t_10                       0
x_16_t_11                       0
x_16_t_12                       0
x_16_t_13                       0
x_16_t_14                       0
x_16_t_15                       0
x_16_t_16               0.0714286
x_16_t_17                 0.75974
x_16_t_18                 0.75974
x_16_t_19                 0.75974
x_17_t_0                        0
x_17_t_1                        0
x_17_t_2                        0
x_17_t_3                        0
x_17_t_4                        0
x_17_t_5                        0
x_17_t_6                        0
x_17_t_7                        0
x_17_t_8                        0
x_17_t_9                        0
x_17_t_10                       0
x_17_t_11                       0
x_17_t_12                       0
x_17_t_13                       0
x_17_t_14                       0
x_17_t_15                       0
x_17_t_16                       0
x_17_t_17                 0.24026
x_17_t_18                 0.24026
x_17_t_19                 0.24026
x_18_t_0                        0
x_18_t_1                        0
x_18_t_2                        0
x_18_t_3                        0
x_18_t_4                        0
x_18_t_5                        0
x_18_t_6                        0
x_18_t_7                        0
x_18_t_8                        0
x_18_t_9                        0
x_18_t_10                       0
x_18_t_11                       0
x_18_t_12                       0
x_18_t_13                       0
x_18_t_14                       0
x_18_t_15                       0
x_18_t_16                       0
x_18_t_17                       0
x_18_t_18                       0
x_18_t_19                       0
x_2_t_0                         0
x_2_t_1                         0
x_2_t_2                  0.188312
x_2_t_3                  0.876623
x_2_t_4                  0.876623
x_2_t_5                  0.876623
x_2_t_6                  0.876623
x_2_t_7                  0.876623
x_2_t_8                  0.876623
x_2_t_9                  0.876623
x_2_t_10                 0.876623
x_2_t_11                 0.876623
x_2_t_12                 0.876623
x_2_t_13                 0.876623
x_2_t_14                 0.876623
x_2_t_15                 0.876623
x_2_t_16                 0.876623
x_2_t_17                 0.876623
x_2_t_18                 0.876623
x_2_t_19                 0.876623
x_3_t_0                         0
x_3_t_1                         0
x_3_t_2                         0
x_3_t_3                  0.123377
x_3_t_4                  0.123377
x_3_t_5                  0.123377
x_3_t_6                  0.894805
x_3_t_7                  0.894805
x_3_t_8                  0.894805
x_3_t_9                  0.894805
x_3_t_10                 0.894805
x_3_t_11                 0.894805
x_3_t_12                 0.894805
x_3_t_13                 0.894805
x_3_t_14                 0.894805
x_3_t_15                 0.894805
x_3_t_16                 0.894805
x_3_t_17                 0.894805
x_3_t_18                 0.894805
x_3_t_19                 0.894805
x_4_t_0                         0
x_4_t_1                         0
x_4_t_2                         0
x_4_t_3                         0
x_4_t_4                  0.441558
x_4_t_5                  0.475325
x_4_t_6                  0.475325
x_4_t_7                  0.475325
x_4_t_8                  0.475325
x_4_t_9                  0.475325
x_4_t_10                 0.475325
x_4_t_11                 0.475325
x_4_t_12                 0.475325
x_4_t_13                 0.475325
x_4_t_14                 0.475325
x_4_t_15                 0.475325
x_4_t_16                 0.475325
x_4_t_17                 0.475325
x_4_t_18                 0.475325
x_4_t_19                 0.475325
x_5_t_0                         0
x_5_t_1                         0
x_5_t_2                         0
x_5_t_3                         0
x_5_t_4                         0
x_5_t_5                  0.524675
x_5_t_6                  0.524675
x_5_t_7                  0.524675
x_5_t_8                  0.950649
x_5_t_9                  0.950649
x_5_t_10                 0.950649
x_5_t_11                 0.950649
x_5_t_12                 0.950649
x_5_t_13                 0.950649
x_5_t_14                 0.950649
x_5_t_15                 0.950649
x_5_t_16                 0.950649
x_5_t_17                 0.950649
x_5_t_18                 0.950649
x_5_t_19                 0.950649
x_6_t_0                         0
x_6_t_1                         0
x_6_t_2                         0
x_6_t_3                         0
x_6_t_4                         0
x_6_t_5                         0
x_6_t_6                  0.105195
x_6_t_7                  0.477922
x_6_t_8                  0.477922
x_6_t_9                  0.477922
x_6_t_10                 0.477922
x_6_t_11                 0.477922
x_6_t_12                 0.477922
x_6_t_13                 0.477922
x_6_t_14                 0.477922
x_6_t_15                 0.477922
x_6_t_16                 0.477922
x_6_t_17                 0.477922
x_6_t_18                 0.477922
x_6_t_19                 0.477922
x_7_t_0                         0
x_7_t_1                         0
x_7_t_2                         0
x_7_t_3                         0
x_7_t_4                         0
x_7_t_5                         0
x_7_t_6                         0
x_7_t_7                  0.522078
x_7_t_8                  0.522078
x_7_t_9                  0.522078
x_7_t_10                 0.684416
x_7_t_11                 0.684416
x_7_t_12                 0.684416
x_7_t_13                 0.684416
x_7_t_14                 0.684416
x_7_t_15                 0.684416
x_7_t_16                 0.684416
x_7_t_17                 0.684416
x_7_t_18                 0.684416
x_7_t_19                        1
x_8_t_0                         0
x_8_t_1                         0
x_8_t_2                         0
x_8_t_3                         0
x_8_t_4                         0
x_8_t_5                         0
x_8_t_6                         0
x_8_t_7                         0
x_8_t_8                 0.0493506
x_8_t_9                  0.737662
x_8_t_10                 0.737662
x_8_t_11                 0.737662
x_8_t_12                 0.737662
x_8_t_13                 0.737662
x_8_t_14                 0.737662
x_8_t_15                 0.737662
x_8_t_16                 0.737662
x_8_t_17                 0.737662
x_8_t_18                 0.737662
x_8_t_19                        1
x_9_t_0                         0
x_9_t_1                         0
x_9_t_2                         0
x_9_t_3                         0
x_9_t_4                         0
x_9_t_5                         0
x_9_t_6                         0
x_9_t_7                         0
x_9_t_8                         0
x_9_t_9                  0.262338
x_9_t_10                 0.262338
x_9_t_11                 0.262338
x_9_t_12                 0.474026
x_9_t_13                 0.474026
x_9_t_14                 0.474026
x_9_t_15                 0.474026
x_9_t_16                 0.474026
x_9_t_17                 0.474026
x_9_t_18                 0.474026
x_9_t_19                 0.474026
